# Objective value = 1950.55509260093
x[0] 1
x[1] 1
x[2] 1
x[3] 1
x[4] 1
x[5] 1
x[6] 1
x[7] 0
x[8] 1
x[9] 0
x[10] 1
x[11] 1
x[12] 1
x[13] 1
x[14] 1
x[15] 0
x[16] 1
x[17] 1
x[18] 1
x[19] 0
x[20] 1
x[21] 1
x[22] 1
x[23] 1
x[24] 1
x[25] 1
x[26] 1
x[27] 0
x[28] 0
x[29] 0
x[30] 0
x[31] 1
x[32] 1
x[33] 0
x[34] 1
x[35] 1
x[36] 1
x[37] 1
x[38] 1
x[39] 1
x[40] 0
x[41] 0
x[42] 1
x[43] 1
x[44] 1
x[45] 0
x[46] 1
x[47] 1
x[48] 0
x[49] 1
x[50] 1
x[51] 1
x[52] 0
x[53] 0
x[54] 1
x[55] 1
x[56] 1
x[57] 0
x[58] 0
x[59] 1
x[60] 0
x[61] 1
x[62] 0
x[63] 0
x[64] 0
x[65] 0
x[66] 1
x[67] 0
x[68] 0
x[69] 0
x[70] 0
x[71] 0
x[72] 1
x[73] 0
x[74] 0
x[75] 1
x[76] 1
x[77] 1
x[78] 0
x[79] 0
x[80] 1
x[81] 0
x[82] 0
x[83] 1
x[84] 0
x[85] 1
x[86] 0
x[87] 0
x[88] 1
x[89] 0
x[90] 0
x[91] 1
x[92] 1
x[93] 0
x[94] 1
x[95] 1
x[96] 0
x[97] 0
x[98] 1
x[99] 0
x[100] 0
x[101] 1
x[102] 1
x[103] 1
x[104] 1
x[105] 1
x[106] 1
x[107] 0
x[108] 0
x[109] 0
x[110] 1
x[111] 1
x[112] 1
x[113] 0
x[114] 0
x[115] 1
x[116] 0
x[117] 1
x[118] 0
x[119] 1
x[120] 0
x[121] 0
x[122] 1
x[123] 0
x[124] 0
x[125] 1
x[126] 1
x[127] 1
x[128] 0
x[129] 1
x[130] 1
x[131] 1
x[132] 1
x[133] 1
x[134] 1
x[135] 0
x[136] 0
x[137] 1
x[138] 1
x[139] 0
x[140] 1
x[141] 1
x[142] 0
x[143] 1
x[144] 0
x[145] 1
x[146] 1
x[147] 0
x[148] 1
x[149] 0
x[150] 0
x[151] 0
x[152] 0
x[153] 0
x[154] 0
x[155] 1
x[156] 0
x[157] 0
x[158] 1
x[159] 0
x[160] 1
x[161] 0
x[162] 1
x[163] 0
x[164] 1
x[165] 0
x[166] 1
x[167] 0
x[168] 0
x[169] 1
x[170] 1
x[171] 1
x[172] 1
x[173] 1
x[174] 0
x[175] 1
x[176] 1
x[177] 1
x[178] 1
x[179] 0
x[180] 0
x[181] 0
x[182] 0
x[183] 0
x[184] 1
x[185] 0
x[186] 1
x[187] 1
x[188] 1
x[189] 0
x[190] 1
x[191] 1
x[192] 1
x[193] 1
x[194] 0
x[195] 0
x[196] 0
x[197] 1
x[198] 0
x[199] 1
x[200] 1
x[201] 1
x[202] 0
x[203] 1
x[204] 0
x[205] 1
x[206] 1
x[207] 1
x[208] 0
x[209] 0
x[210] 0
x[211] 1
x[212] 0
x[213] 0
x[214] 0
x[215] 0
x[216] 1
x[217] 1
x[218] 1
x[219] 0
x[220] 0
x[221] 1
x[222] 0
x[223] 0
x[224] 1
x[225] 1
x[226] 0
x[227] 0
x[228] 1
x[229] 0
x[230] 0
x[231] 1
x[232] 0
x[233] 1
x[234] 1
x[235] 0
x[236] 0
x[237] 1
x[238] 1
x[239] 0
x[240] 1
x[241] 0
x[242] 0
x[243] 1
x[244] 0
x[245] 1
x[246] 1
x[247] 1
x[248] 1
x[249] 1
x[250] 1
x[251] 1
x[252] 0
x[253] 0
x[254] 1
x[255] 1
x[256] 0
x[257] 0
x[258] 1
x[259] 1
x[260] 1
x[261] 1
x[262] 1
x[263] 1
x[264] 1
x[265] 1
x[266] 1
x[267] 1
x[268] 1
x[269] 1
x[270] 0
x[271] 1
x[272] 0
x[273] 1
x[274] 0
x[275] 0
x[276] 1
x[277] 0
x[278] 1
x[279] 0
x[280] 1
x[281] 1
x[282] 1
x[283] 0
x[284] 0
x[285] 1
x[286] 0
x[287] 1
x[288] 0
x[289] 1
x[290] 1
x[291] 0
x[292] 0
x[293] 0
x[294] 0
x[295] 1
x[296] 1
x[297] 1
x[298] 1
x[299] 1
x[300] 0
x[301] 1
x[302] 1
x[303] 0
x[304] 1
x[305] 0
x[306] 1
x[307] 1
x[308] 1
x[309] 0
x[310] 1
x[311] 0
x[312] 1
x[313] 0
x[314] 0
x[315] 1
x[316] 0
x[317] 1
x[318] 1
x[319] 0
x[320] 1
x[321] 1
x[322] 0
x[323] 0
x[324] 0
x[325] 0
x[326] 0
x[327] 1
x[328] 1
x[329] 1
x[330] 0
x[331] 1
x[332] 1
x[333] 1
x[334] 1
x[335] 1
x[336] 1
x[337] 1
x[338] 0
x[339] 1
x[340] 1
x[341] 0
x[342] 0
x[343] 0
x[344] 1
x[345] 0
x[346] 1
x[347] 1
x[348] 0
x[349] 1
x[350] 0
x[351] 0
x[352] 1
x[353] 0
x[354] 0
x[355] 0
x[356] 0
x[357] 1
x[358] 1
x[359] 0
x[360] 1
x[361] 0
x[362] 1
x[363] 1
x[364] 0
x[365] 1
x[366] 1
x[367] 0
x[368] 0
x[369] 1
x[370] 0
x[371] 0
x[372] 0
x[373] 1
x[374] 0
x[375] 0
x[376] 0
x[377] 1
x[378] 1
x[379] 0
x[380] 1
x[381] 0
x[382] 0
x[383] 1
x[384] 0
x[385] 1
x[386] 1
x[387] 1
x[388] 0
x[389] 0
x[390] 1
x[391] 1
x[392] 1
x[393] 1
x[394] 0
x[395] 0
x[396] 0
x[397] 0
x[398] 1
x[399] 1
x[400] 1
x[401] 1
x[402] 1
x[403] 1
x[404] 0
x[405] 0
x[406] 1
x[407] 0
x[408] 1
x[409] 0
x[410] 1
x[411] 1
x[412] 1
x[413] 1
x[414] 1
x[415] 0
x[416] 0
x[417] 1
x[418] 1
x[419] 1
x[420] 1
x[421] 0
x[422] 1
x[423] 0
x[424] 0
x[425] 0
x[426] 0
x[427] 1
x[428] 1
x[429] 0
x[430] 1
x[431] 1
x[432] 0
x[433] 1
x[434] 1
x[435] 0
x[436] 1
x[437] 0
x[438] 1
x[439] 0
x[440] 0
x[441] 1
x[442] 1
x[443] 0
x[444] 1
x[445] 1
x[446] 0
x[447] 0
x[448] 1
x[449] 0
x[450] 0
x[451] 1
x[452] 0
x[453] 0
x[454] 0
x[455] 1
x[456] 1
x[457] 1
x[458] 1
x[459] 1
x[460] 1
x[461] 0
x[462] 1
x[463] 0
x[464] 0
x[465] 1
x[466] 1
x[467] 1
x[468] 1
x[469] 1
x[470] 0
x[471] 1
x[472] 0
x[473] 1
x[474] 1
x[475] 0
x[476] 1
x[477] 1
x[478] 1
x[479] 0
x[480] 1
x[481] 1
x[482] 1
x[483] 1
x[484] 1
x[485] 0
x[486] 1
x[487] 0
x[488] 0
x[489] 1
x[490] 1
x[491] 0
x[492] 1
x[493] 0
x[494] 1
x[495] 1
x[496] 1
x[497] 0
x[498] 1
x[499] 1
x[500] 0
x[501] 0
x[502] 1
x[503] 0
x[504] 1
x[505] 0
x[506] 1
x[507] 1
x[508] 1
x[509] 0
x[510] 1
x[511] 1
x[512] 0
x[513] 1
x[514] 1
x[515] 1
x[516] 1
x[517] 0
x[518] 1
x[519] 1
x[520] 1
x[521] 1
x[522] 1
x[523] 0
x[524] 0
x[525] 1
x[526] 1
x[527] 0
x[528] 1
x[529] 1
x[530] 1
x[531] 1
x[532] 1
x[533] 1
x[534] 1
x[535] 0
x[536] 1
x[537] 1
x[538] 1
x[539] 1
x[540] 0
x[541] 0
x[542] 1
x[543] 1
x[544] 0
x[545] 0
x[546] 0
x[547] 1
x[548] 0
x[549] 0
x[550] 0
x[551] 1
x[552] 1
x[553] 1
x[554] 0
x[555] 0
x[556] 1
x[557] 0
x[558] 1
x[559] 1
x[560] 1
x[561] 1
x[562] 1
x[563] 1
x[564] 1
x[565] 1
x[566] 0
x[567] 0
x[568] 0
x[569] 1
x[570] 0
x[571] 1
x[572] 0
x[573] 1
x[574] 1
x[575] 1
x[576] 1
x[577] 0
x[578] 0
x[579] 1
x[580] 0
x[581] 1
x[582] 0
x[583] 1
x[584] 1
x[585] 0
x[586] 1
x[587] 1
x[588] 0
x[589] 0
x[590] 0
x[591] 0
x[592] 1
x[593] 1
x[594] 1
x[595] 1
x[596] 1
x[597] 1
x[598] 1
x[599] 1
x[600] 1
x[601] 0
x[602] 1
x[603] 1
x[604] 0
x[605] 1
x[606] 0
x[607] 1
x[608] 1
x[609] 1
x[610] 0
x[611] 0
x[612] 1
x[613] 0
x[614] 1
x[615] 1
x[616] 1
x[617] 1
x[618] 0
x[619] 0
x[620] 1
x[621] 0
x[622] 1
x[623] 1
x[624] 0
x[625] 0
x[626] 0
x[627] 0
x[628] 0
x[629] 1
x[630] 1
x[631] 1
x[632] 1
x[633] 0
x[634] 0
x[635] 0
x[636] 0
x[637] 1
x[638] 1
x[639] 0
x[640] 0
x[641] 1
x[642] 1
x[643] 1
x[644] 0
x[645] 1
x[646] 0
x[647] 1
x[648] 1
x[649] 0
x[650] 0
x[651] 1
x[652] 1
x[653] 1
x[654] 0
x[655] 1
x[656] 0
x[657] 1
x[658] 0
x[659] 0
x[660] 1
x[661] 1
x[662] 1
x[663] 0
x[664] 1
x[665] 1
x[666] 1
x[667] 1
x[668] 0
x[669] 0
x[670] 1
x[671] 1
x[672] 0
x[673] 0
x[674] 0
x[675] 0
x[676] 0
x[677] 0
x[678] 0
x[679] 1
x[680] 0
x[681] 1
x[682] 1
x[683] 1
x[684] 1
x[685] 1
x[686] 1
x[687] 0
x[688] 0
x[689] 0
x[690] 1
x[691] 0
x[692] 1
x[693] 1
x[694] 1
x[695] 0
x[696] 0
x[697] 0
x[698] 1
x[699] 0
x[700] 1
x[701] 0
x[702] 0
x[703] 0
x[704] 0
x[705] 0
x[706] 0
x[707] 0
x[708] 0
x[709] 0
x[710] 1
x[711] 0
x[712] 1
x[713] 0
x[714] 1
x[715] 1
x[716] 0
x[717] 0
x[718] 1
x[719] 0
x[720] 0
x[721] 1
x[722] 1
x[723] 1
x[724] 1
x[725] 1
x[726] 1
x[727] 0
x[728] 1
x[729] 1
x[730] 1
x[731] 1
x[732] 0
x[733] 1
x[734] 0
x[735] 1
x[736] 0
x[737] 0
x[738] 0
x[739] 0
x[740] 1
x[741] 0
x[742] 1
x[743] 0
x[744] 0
x[745] 1
x[746] 1
x[747] 1
x[748] 0
x[749] 0
x[750] 1
x[751] 1
x[752] 0
x[753] 0
x[754] 1
x[755] 0
x[756] 1
x[757] 1
x[758] 0
x[759] 0
x[760] 0
x[761] 1
x[762] 1
x[763] 1
x[764] 0
x[765] 1
x[766] 0
x[767] 0
x[768] 0
x[769] 0
x[770] 1
x[771] 1
x[772] 0
x[773] 1
x[774] 0
x[775] 0
x[776] 0
x[777] 0
x[778] 1
x[779] 0
x[780] 0
x[781] 0
x[782] 0
x[783] 1
x[784] 0
x[785] 0
x[786] 1
x[787] 0
x[788] 1
x[789] 0
x[790] 0
x[791] 0
x[792] 1
x[793] 0
x[794] 1
x[795] 0
x[796] 1
x[797] 1
x[798] 1
x[799] 0
x[800] 0
x[801] 1
x[802] 0
x[803] 1
x[804] 0
x[805] 0
x[806] 1
x[807] 0
x[808] 1
x[809] 1
x[810] 0
x[811] 0
x[812] 1
x[813] 1
x[814] 1
x[815] 1
x[816] 0
x[817] 1
x[818] 0
x[819] 1
x[820] 0
x[821] 1
x[822] 1
x[823] 0
x[824] 1
x[825] 1
x[826] 0
x[827] 1
x[828] 1
x[829] 1
x[830] 0
x[831] 1
x[832] 1
x[833] 0
x[834] 0
x[835] 0
x[836] 1
x[837] 1
x[838] 0
x[839] 0
x[840] 1
x[841] 1
x[842] 1
x[843] 1
x[844] 0
x[845] 1
x[846] 1
x[847] 1
x[848] 0
x[849] 1
x[850] 0
x[851] 1
x[852] 0
x[853] 1
x[854] 1
x[855] 0
x[856] 0
x[857] 1
x[858] 1
x[859] 0
x[860] 0
x[861] 1
x[862] 1
x[863] 0
x[864] 1
x[865] 0
x[866] 1
x[867] 1
x[868] 1
x[869] 0
x[870] 1
x[871] 1
x[872] 0
x[873] 1
x[874] 1
x[875] 1
x[876] 1
x[877] 1
x[878] 1
x[879] 0
x[880] 1
x[881] 0
x[882] 0
x[883] 1
x[884] 0
x[885] 0
x[886] 1
x[887] 0
x[888] 1
x[889] 0
x[890] 0
x[891] 0
x[892] 1
x[893] 1
x[894] 0
x[895] 0
x[896] 1
x[897] 1
x[898] 0
x[899] 0
x[900] 1
x[901] 0
x[902] 0
x[903] 0
x[904] 0
x[905] 0
x[906] 1
x[907] 0
x[908] 1
x[909] 1
x[910] 1
x[911] 1
x[912] 1
x[913] 1
x[914] 1
x[915] 1
x[916] 1
x[917] 0
x[918] 0
x[919] 0
x[920] 0
x[921] 0
x[922] 1
x[923] 0
x[924] 0
x[925] 1
x[926] 0
x[927] 1
x[928] 1
x[929] 0
x[930] 1
x[931] 1
x[932] 1
x[933] 0
x[934] 1
x[935] 1
x[936] 0
x[937] 0
x[938] 1
x[939] 1
x[940] 0
x[941] 0
x[942] 1
x[943] 1
x[944] 1
x[945] 1
x[946] 1
x[947] 1
x[948] 0
x[949] 1
x[950] 0
x[951] 1
x[952] 0
x[953] 1
x[954] 0
x[955] 0
x[956] 1
x[957] 1
x[958] 1
x[959] 1
x[960] 1
x[961] 1
x[962] 1
x[963] 0
x[964] 1
x[965] 0
x[966] 0
x[967] 1
x[968] 0
x[969] 1
x[970] 0
x[971] 1
x[972] 1
x[973] 0
x[974] 0
x[975] 0
x[976] 1
x[977] 0
x[978] 0
x[979] 1
x[980] 1
x[981] 0
x[982] 0
x[983] 0
x[984] 0
x[985] 0
x[986] 1
x[987] 1
x[988] 1
x[989] 0
x[990] 1
x[991] 1
x[992] 1
x[993] 0
x[994] 0
x[995] 0
x[996] 0
x[997] 1
x[998] 1
x[999] 0
